File : Instances/p69
Used 68s
25258

0 0 0 0 1 1 0 1 0 0 0 0 1 1 0 0 0 1 0 1 1 1 0 0 1 0 0 1 1 0 
7 19 21 27 21 12 21 27 27 28 4 28 13 13 28 7 13 20 27 27 27 21 5 24 5 27 27 19 4 21 19 19 4 21 27 12 20 20 24 21 7 20 12 4 20 19 13 21 19 17 24 24 24 21 20 12 7 20 27 7 4 17 7 20 13 12 5 17 28 12 7 12 19 20 5 5 20 5 20 24 13 17 20 7 4 13 19 5 27 7 28 19 7 7 5 13 28 12 17 28 28 21 12 7 4 24 4 24 27 13 19 4 27 12 12 20 28 7 17 20 19 12 17 19 4 21 21 12 19 17 28 24 12 20 5 20 13 13 28 17 12 27 12 12 7 5 24 21 27 7 24 17 5 17 20 28 5 21 13 13 13 27 13 24 5 27 5 4 13 21 5 20 19 17 4 21 24 20 4 20 5 21 21 19 12 20 28 5 17 21 21 21 19 4 7 12 7 21 13 19 
